ATOMIC_SPECIES
Zn  65.38         
S   32.06         

LATTICE_CONSTANT
1.8897261258369282 

LATTICE_VECTORS
16.162098000      0.0000000000      0.0000000000      
0.0000000000      16.162098000      0.0000000000      
0.0000000000      0.0000000000      16.162098000      

ATOMIC_POSITIONS
Direct

Zn
0.0000000000
108
0.0000000000 0.0000000000 0.0000000000 1 1 1 mag 0.0 
0.0000000000 0.0000000000 0.3333330000 1 1 1 mag 0.0 
0.0000000000 0.0000000000 0.6666670000 1 1 1 mag 0.0 
0.0000000000 0.3333330000 0.0000000000 1 1 1 mag 0.0 
0.0000000000 0.3333330000 0.3333330000 1 1 1 mag 0.0 
0.0000000000 0.3333330000 0.6666670000 1 1 1 mag 0.0 
0.0000000000 0.6666670000 0.0000000000 1 1 1 mag 0.0 
0.0000000000 0.6666670000 0.3333330000 1 1 1 mag 0.0 
0.0000000000 0.6666670000 0.6666670000 1 1 1 mag 0.0 
0.3333330000 0.0000000000 0.0000000000 1 1 1 mag 0.0 
0.3333330000 0.0000000000 0.3333330000 1 1 1 mag 0.0 
0.3333330000 0.0000000000 0.6666670000 1 1 1 mag 0.0 
0.3333330000 0.3333330000 0.0000000000 1 1 1 mag 0.0 
0.3333330000 0.3333330000 0.3333330000 1 1 1 mag 0.0 
0.3333330000 0.3333330000 0.6666670000 1 1 1 mag 0.0 
0.3333330000 0.6666670000 0.0000000000 1 1 1 mag 0.0 
0.3333330000 0.6666670000 0.3333330000 1 1 1 mag 0.0 
0.3333330000 0.6666670000 0.6666670000 1 1 1 mag 0.0 
0.6666670000 0.0000000000 0.0000000000 1 1 1 mag 0.0 
0.6666670000 0.0000000000 0.3333330000 1 1 1 mag 0.0 
0.6666670000 0.0000000000 0.6666670000 1 1 1 mag 0.0 
0.6666670000 0.3333330000 0.0000000000 1 1 1 mag 0.0 
0.6666670000 0.3333330000 0.3333330000 1 1 1 mag 0.0 
0.6666670000 0.3333330000 0.6666670000 1 1 1 mag 0.0 
0.6666670000 0.6666670000 0.0000000000 1 1 1 mag 0.0 
0.6666670000 0.6666670000 0.3333330000 1 1 1 mag 0.0 
0.6666670000 0.6666670000 0.6666670000 1 1 1 mag 0.0 
0.0000000000 0.1666670000 0.1666670000 1 1 1 mag 0.0 
0.0000000000 0.1666670000 0.5000000000 1 1 1 mag 0.0 
0.0000000000 0.1666670000 0.8333340000 1 1 1 mag 0.0 
0.0000000000 0.5000000000 0.1666670000 1 1 1 mag 0.0 
0.0000000000 0.5000000000 0.5000000000 1 1 1 mag 0.0 
0.0000000000 0.5000000000 0.8333340000 1 1 1 mag 0.0 
0.0000000000 0.8333340000 0.1666670000 1 1 1 mag 0.0 
0.0000000000 0.8333340000 0.5000000000 1 1 1 mag 0.0 
0.0000000000 0.8333340000 0.8333340000 1 1 1 mag 0.0 
0.3333330000 0.1666670000 0.1666670000 1 1 1 mag 0.0 
0.3333330000 0.1666670000 0.5000000000 1 1 1 mag 0.0 
0.3333330000 0.1666670000 0.8333340000 1 1 1 mag 0.0 
0.3333330000 0.5000000000 0.1666670000 1 1 1 mag 0.0 
0.3333330000 0.5000000000 0.5000000000 1 1 1 mag 0.0 
0.3333330000 0.5000000000 0.8333340000 1 1 1 mag 0.0 
0.3333330000 0.8333340000 0.1666670000 1 1 1 mag 0.0 
0.3333330000 0.8333340000 0.5000000000 1 1 1 mag 0.0 
0.3333330000 0.8333340000 0.8333340000 1 1 1 mag 0.0 
0.6666670000 0.1666670000 0.1666670000 1 1 1 mag 0.0 
0.6666670000 0.1666670000 0.5000000000 1 1 1 mag 0.0 
0.6666670000 0.1666670000 0.8333340000 1 1 1 mag 0.0 
0.6666670000 0.5000000000 0.1666670000 1 1 1 mag 0.0 
0.6666670000 0.5000000000 0.5000000000 1 1 1 mag 0.0 
0.6666670000 0.5000000000 0.8333340000 1 1 1 mag 0.0 
0.6666670000 0.8333340000 0.1666670000 1 1 1 mag 0.0 
0.6666670000 0.8333340000 0.5000000000 1 1 1 mag 0.0 
0.6666670000 0.8333340000 0.8333340000 1 1 1 mag 0.0 
0.1666670000 0.0000000000 0.1666670000 1 1 1 mag 0.0 
0.1666670000 0.0000000000 0.5000000000 1 1 1 mag 0.0 
0.1666670000 0.0000000000 0.8333340000 1 1 1 mag 0.0 
0.1666670000 0.3333330000 0.1666670000 1 1 1 mag 0.0 
0.1666670000 0.3333330000 0.5000000000 1 1 1 mag 0.0 
0.1666670000 0.3333330000 0.8333340000 1 1 1 mag 0.0 
0.1666670000 0.6666670000 0.1666670000 1 1 1 mag 0.0 
0.1666670000 0.6666670000 0.5000000000 1 1 1 mag 0.0 
0.1666670000 0.6666670000 0.8333340000 1 1 1 mag 0.0 
0.5000000000 0.0000000000 0.1666670000 1 1 1 mag 0.0 
0.5000000000 0.0000000000 0.5000000000 1 1 1 mag 0.0 
0.5000000000 0.0000000000 0.8333340000 1 1 1 mag 0.0 
0.5000000000 0.3333330000 0.1666670000 1 1 1 mag 0.0 
0.5000000000 0.3333330000 0.5000000000 1 1 1 mag 0.0 
0.5000000000 0.3333330000 0.8333340000 1 1 1 mag 0.0 
0.5000000000 0.6666670000 0.1666670000 1 1 1 mag 0.0 
0.5000000000 0.6666670000 0.5000000000 1 1 1 mag 0.0 
0.5000000000 0.6666670000 0.8333340000 1 1 1 mag 0.0 
0.8333340000 0.0000000000 0.1666670000 1 1 1 mag 0.0 
0.8333340000 0.0000000000 0.5000000000 1 1 1 mag 0.0 
0.8333340000 0.0000000000 0.8333340000 1 1 1 mag 0.0 
0.8333340000 0.3333330000 0.1666670000 1 1 1 mag 0.0 
0.8333340000 0.3333330000 0.5000000000 1 1 1 mag 0.0 
0.8333340000 0.3333330000 0.8333340000 1 1 1 mag 0.0 
0.8333340000 0.6666670000 0.1666670000 1 1 1 mag 0.0 
0.8333340000 0.6666670000 0.5000000000 1 1 1 mag 0.0 
0.8333340000 0.6666670000 0.8333340000 1 1 1 mag 0.0 
0.1666670000 0.1666670000 0.0000000000 1 1 1 mag 0.0 
0.1666670000 0.1666670000 0.3333330000 1 1 1 mag 0.0 
0.1666670000 0.1666670000 0.6666670000 1 1 1 mag 0.0 
0.1666670000 0.5000000000 0.0000000000 1 1 1 mag 0.0 
0.1666670000 0.5000000000 0.3333330000 1 1 1 mag 0.0 
0.1666670000 0.5000000000 0.6666670000 1 1 1 mag 0.0 
0.1666670000 0.8333340000 0.0000000000 1 1 1 mag 0.0 
0.1666670000 0.8333340000 0.3333330000 1 1 1 mag 0.0 
0.1666670000 0.8333340000 0.6666670000 1 1 1 mag 0.0 
0.5000000000 0.1666670000 0.0000000000 1 1 1 mag 0.0 
0.5000000000 0.1666670000 0.3333330000 1 1 1 mag 0.0 
0.5000000000 0.1666670000 0.6666670000 1 1 1 mag 0.0 
0.5000000000 0.5000000000 0.0000000000 1 1 1 mag 0.0 
0.5000000000 0.5000000000 0.3333330000 1 1 1 mag 0.0 
0.5000000000 0.5000000000 0.6666670000 1 1 1 mag 0.0 
0.5000000000 0.8333340000 0.0000000000 1 1 1 mag 0.0 
0.5000000000 0.8333340000 0.3333330000 1 1 1 mag 0.0 
0.5000000000 0.8333340000 0.6666670000 1 1 1 mag 0.0 
0.8333340000 0.1666670000 0.0000000000 1 1 1 mag 0.0 
0.8333340000 0.1666670000 0.3333330000 1 1 1 mag 0.0 
0.8333340000 0.1666670000 0.6666670000 1 1 1 mag 0.0 
0.8333340000 0.5000000000 0.0000000000 1 1 1 mag 0.0 
0.8333340000 0.5000000000 0.3333330000 1 1 1 mag 0.0 
0.8333340000 0.5000000000 0.6666670000 1 1 1 mag 0.0 
0.8333340000 0.8333340000 0.0000000000 1 1 1 mag 0.0 
0.8333340000 0.8333340000 0.3333330000 1 1 1 mag 0.0 
0.8333340000 0.8333340000 0.6666670000 1 1 1 mag 0.0 

S
0.0000000000
108
0.0833330000 0.2500000000 0.2500000000 1 1 1 mag 0.0 
0.0833330000 0.2500000000 0.5833330000 1 1 1 mag 0.0 
0.0833330000 0.2500000000 0.9166670000 1 1 1 mag 0.0 
0.0833330000 0.5833330000 0.2500000000 1 1 1 mag 0.0 
0.0833330000 0.5833330000 0.5833330000 1 1 1 mag 0.0 
0.0833330000 0.5833330000 0.9166670000 1 1 1 mag 0.0 
0.0833330000 0.9166670000 0.2500000000 1 1 1 mag 0.0 
0.0833330000 0.9166670000 0.5833330000 1 1 1 mag 0.0 
0.0833330000 0.9166670000 0.9166670000 1 1 1 mag 0.0 
0.4166660000 0.2500000000 0.2500000000 1 1 1 mag 0.0 
0.4166660000 0.2500000000 0.5833330000 1 1 1 mag 0.0 
0.4166660000 0.2500000000 0.9166670000 1 1 1 mag 0.0 
0.4166660000 0.5833330000 0.2500000000 1 1 1 mag 0.0 
0.4166660000 0.5833330000 0.5833330000 1 1 1 mag 0.0 
0.4166660000 0.5833330000 0.9166670000 1 1 1 mag 0.0 
0.4166660000 0.9166670000 0.2500000000 1 1 1 mag 0.0 
0.4166660000 0.9166670000 0.5833330000 1 1 1 mag 0.0 
0.4166660000 0.9166670000 0.9166670000 1 1 1 mag 0.0 
0.7500000000 0.2500000000 0.2500000000 1 1 1 mag 0.0 
0.7500000000 0.2500000000 0.5833330000 1 1 1 mag 0.0 
0.7500000000 0.2500000000 0.9166670000 1 1 1 mag 0.0 
0.7500000000 0.5833330000 0.2500000000 1 1 1 mag 0.0 
0.7500000000 0.5833330000 0.5833330000 1 1 1 mag 0.0 
0.7500000000 0.5833330000 0.9166670000 1 1 1 mag 0.0 
0.7500000000 0.9166670000 0.2500000000 1 1 1 mag 0.0 
0.7500000000 0.9166670000 0.5833330000 1 1 1 mag 0.0 
0.7500000000 0.9166670000 0.9166670000 1 1 1 mag 0.0 
0.0833330000 0.0833330000 0.0833330000 1 1 1 mag 0.0 
0.0833330000 0.0833330000 0.4166660000 1 1 1 mag 0.0 
0.0833330000 0.0833330000 0.7500000000 1 1 1 mag 0.0 
0.0833330000 0.4166660000 0.0833330000 1 1 1 mag 0.0 
0.0833330000 0.4166660000 0.4166660000 1 1 1 mag 0.0 
0.0833330000 0.4166660000 0.7500000000 1 1 1 mag 0.0 
0.0833330000 0.7500000000 0.0833330000 1 1 1 mag 0.0 
0.0833330000 0.7500000000 0.4166660000 1 1 1 mag 0.0 
0.0833330000 0.7500000000 0.7500000000 1 1 1 mag 0.0 
0.4166660000 0.0833330000 0.0833330000 1 1 1 mag 0.0 
0.4166660000 0.0833330000 0.4166660000 1 1 1 mag 0.0 
0.4166660000 0.0833330000 0.7500000000 1 1 1 mag 0.0 
0.4166660000 0.4166660000 0.0833330000 1 1 1 mag 0.0 
0.4166660000 0.4166660000 0.4166660000 1 1 1 mag 0.0 
0.4166660000 0.4166660000 0.7500000000 1 1 1 mag 0.0 
0.4166660000 0.7500000000 0.0833330000 1 1 1 mag 0.0 
0.4166660000 0.7500000000 0.4166660000 1 1 1 mag 0.0 
0.4166660000 0.7500000000 0.7500000000 1 1 1 mag 0.0 
0.7500000000 0.0833330000 0.0833330000 1 1 1 mag 0.0 
0.7500000000 0.0833330000 0.4166660000 1 1 1 mag 0.0 
0.7500000000 0.0833330000 0.7500000000 1 1 1 mag 0.0 
0.7500000000 0.4166660000 0.0833330000 1 1 1 mag 0.0 
0.7500000000 0.4166660000 0.4166660000 1 1 1 mag 0.0 
0.7500000000 0.4166660000 0.7500000000 1 1 1 mag 0.0 
0.7500000000 0.7500000000 0.0833330000 1 1 1 mag 0.0 
0.7500000000 0.7500000000 0.4166660000 1 1 1 mag 0.0 
0.7500000000 0.7500000000 0.7500000000 1 1 1 mag 0.0 
0.2500000000 0.2500000000 0.0833330000 1 1 1 mag 0.0 
0.2500000000 0.2500000000 0.4166660000 1 1 1 mag 0.0 
0.2500000000 0.2500000000 0.7500000000 1 1 1 mag 0.0 
0.2500000000 0.5833330000 0.0833330000 1 1 1 mag 0.0 
0.2500000000 0.5833330000 0.4166660000 1 1 1 mag 0.0 
0.2500000000 0.5833330000 0.7500000000 1 1 1 mag 0.0 
0.2500000000 0.9166670000 0.0833330000 1 1 1 mag 0.0 
0.2500000000 0.9166670000 0.4166660000 1 1 1 mag 0.0 
0.2500000000 0.9166670000 0.7500000000 1 1 1 mag 0.0 
0.5833330000 0.2500000000 0.0833330000 1 1 1 mag 0.0 
0.5833330000 0.2500000000 0.4166660000 1 1 1 mag 0.0 
0.5833330000 0.2500000000 0.7500000000 1 1 1 mag 0.0 
0.5833330000 0.5833330000 0.0833330000 1 1 1 mag 0.0 
0.5833330000 0.5833330000 0.4166660000 1 1 1 mag 0.0 
0.5833330000 0.5833330000 0.7500000000 1 1 1 mag 0.0 
0.5833330000 0.9166670000 0.0833330000 1 1 1 mag 0.0 
0.5833330000 0.9166670000 0.4166660000 1 1 1 mag 0.0 
0.5833330000 0.9166670000 0.7500000000 1 1 1 mag 0.0 
0.9166670000 0.2500000000 0.0833330000 1 1 1 mag 0.0 
0.9166670000 0.2500000000 0.4166660000 1 1 1 mag 0.0 
0.9166670000 0.2500000000 0.7500000000 1 1 1 mag 0.0 
0.9166670000 0.5833330000 0.0833330000 1 1 1 mag 0.0 
0.9166670000 0.5833330000 0.4166660000 1 1 1 mag 0.0 
0.9166670000 0.5833330000 0.7500000000 1 1 1 mag 0.0 
0.9166670000 0.9166670000 0.0833330000 1 1 1 mag 0.0 
0.9166670000 0.9166670000 0.4166660000 1 1 1 mag 0.0 
0.9166670000 0.9166670000 0.7500000000 1 1 1 mag 0.0 
0.2500000000 0.0833330000 0.2500000000 1 1 1 mag 0.0 
0.2500000000 0.0833330000 0.5833330000 1 1 1 mag 0.0 
0.2500000000 0.0833330000 0.9166670000 1 1 1 mag 0.0 
0.2500000000 0.4166660000 0.2500000000 1 1 1 mag 0.0 
0.2500000000 0.4166660000 0.5833330000 1 1 1 mag 0.0 
0.2500000000 0.4166660000 0.9166670000 1 1 1 mag 0.0 
0.2500000000 0.7500000000 0.2500000000 1 1 1 mag 0.0 
0.2500000000 0.7500000000 0.5833330000 1 1 1 mag 0.0 
0.2500000000 0.7500000000 0.9166670000 1 1 1 mag 0.0 
0.5833330000 0.0833330000 0.2500000000 1 1 1 mag 0.0 
0.5833330000 0.0833330000 0.5833330000 1 1 1 mag 0.0 
0.5833330000 0.0833330000 0.9166670000 1 1 1 mag 0.0 
0.5833330000 0.4166660000 0.2500000000 1 1 1 mag 0.0 
0.5833330000 0.4166660000 0.5833330000 1 1 1 mag 0.0 
0.5833330000 0.4166660000 0.9166670000 1 1 1 mag 0.0 
0.5833330000 0.7500000000 0.2500000000 1 1 1 mag 0.0 
0.5833330000 0.7500000000 0.5833330000 1 1 1 mag 0.0 
0.5833330000 0.7500000000 0.9166670000 1 1 1 mag 0.0 
0.9166670000 0.0833330000 0.2500000000 1 1 1 mag 0.0 
0.9166670000 0.0833330000 0.5833330000 1 1 1 mag 0.0 
0.9166670000 0.0833330000 0.9166670000 1 1 1 mag 0.0 
0.9166670000 0.4166660000 0.2500000000 1 1 1 mag 0.0 
0.9166670000 0.4166660000 0.5833330000 1 1 1 mag 0.0 
0.9166670000 0.4166660000 0.9166670000 1 1 1 mag 0.0 
0.9166670000 0.7500000000 0.2500000000 1 1 1 mag 0.0 
0.9166670000 0.7500000000 0.5833330000 1 1 1 mag 0.0 
0.9166670000 0.7500000000 0.9166670000 1 1 1 mag 0.0 
